NAME : cites
COMMENT : 25 ciudades argentinas
TYPE : TSP
DIMENSION : 24
EDGE_WEIGHT_TYPE : EUC_2D
NODE_COORD_SECTION
0 000.0  000.0 
1 +355.8 -405.9
2 -467.0 +274.3
3 +305.8 +383.6
4 -291.0 -53.7
5 +378.1 +528.2
6 -415.1 +750.6
7 +402.2 -444.8
8 -587.5 +170.5
9 -808.0 -216.8
10 -719.1 -891.4
11 +116.8 -89.0
12 +632.0 +396.6
13 +287.3 +387.3
14 -852.5 -2301.7
15 -426.2 +683.8
16 -774.7 -66.7
17 -531.9 -259.5
18 +96.4 -77.8
19 -302.1 -632.0
20 -300.2 +350.3
21 -415.1 -1369.6
22 -405.9 +457.8
23 -748.7 -2653.9
24 -159.4 -1097.1
EOF
